
  32    4
  10   10   10   10

   0   0   0   0   0   3 2 8 23 
  10   1   1   1   0   1 3 
   8   7   6   2   0   1 4 
   3   0   7   2   1   2 12 5 
   8   0   5   7   5   1 6 
   1   5   4   0   4   1 7 
   9   4   0   6   4   2 25 9 
   4   0   6   5   4   2 25 10 
   3   6   4   0   1   1 10 
   2   3   4   6   0   1 11 
   7   4   6   0   5   2 22 13 
   4   3   0   4   4   2 22 13 
   9   2   3   0   5   1 14 
   7   0   5   4   7   1 15 
   2   2   0   2   6   1 16 
   3   3   5   0   5   1 17 
   5   3   3   6   0   1 18 
   6   4   4   4   0   1 19 
   5   5   1   3   0   1 20 
   1   2   6   3   0   1 21 
   1   0   3   3   3   2 31 24 
   6   6   0   5   3   1 24 
   8   3   0   3   4   2 31 27 
   8   4   2   0   3   1 26 
   8   8   5   3   0   1 26 
   8   0   4   4   4   1 27 
   7   0   4   6   5   1 28 
   2   3   2   3   0   1 29 
   5   5   0   6   4   1 30 
   2   2   3   0   4   1 32
   4   7   3   0   3   1 32
   0   0   0   0   0   0 
